NAME : Custom-CVRP
COMMENT : Custom generated data set
TYPE : CVRP
DIMENSION : 81
EDGE_WEIGHT_TYPE : EUC_2D
CAPACITY : 10
NODE_COORD_SECTION
 1 9 27
 2 42 86
 3 18 8
 4 25 36
 5 25 6
 6 32 4
 7 96 54
 8 24 44
 9 68 45
 10 3 44
 11 90 5
 12 1 81
 13 42 26
 14 82 72
 15 77 27
 16 96 39
 17 33 95
 18 80 21
 19 83 93
 20 97 23
 21 15 98
 22 60 26
 23 73 40
 24 77 44
 25 22 6
 26 91 53
 27 40 27
 28 67 65
 29 42 82
 30 95 90
 31 94 64
 32 29 83
 33 98 86
 34 45 60
 35 26 95
 36 23 78
 37 50 33
 38 57 52
 39 13 93
 40 98 27
 41 36 69
 42 77 1
 43 96 50
 44 49 29
 45 89 82
 46 43 63
 47 71 57
 48 17 25
 49 72 13
 50 33 99
 51 30 67
 52 98 85
 53 21 26
 54 8 82
 55 92 41
 56 15 70
 57 32 13
 58 44 17
 59 48 41
 60 94 89
 61 64 64
 62 83 42
 63 83 58
 64 53 34
 65 33 59
 66 47 55
 67 12 25
 68 77 53
 69 52 89
 70 92 65
 71 80 16
 72 97 1
 73 82 83
 74 94 51
 75 98 96
 76 46 96
 77 33 22
 78 5 96
 79 56 41
 80 48 66
 81 89 92
DEMAND_SECTION
 1 0
 2 1
 3 2
 4 2
 5 2
 6 2
 7 1
 8 2
 9 2
 10 1
 11 2
 12 1
 13 2
 14 1
 15 2
 16 3
 17 2
 18 2
 19 1
 20 3
 21 1
 22 1
 23 3
 24 2
 25 1
 26 1
 27 1
 28 1
 29 1
 30 1
 31 2
 32 1
 33 3
 34 1
 35 3
 36 3
 37 2
 38 3
 39 1
 40 3
 41 2
 42 2
 43 1
 44 3
 45 3
 46 3
 47 1
 48 3
 49 3
 50 3
 51 3
 52 3
 53 2
 54 3
 55 3
 56 3
 57 2
 58 1
 59 2
 60 1
 61 2
 62 1
 63 3
 64 3
 65 3
 66 3
 67 3
 68 3
 69 2
 70 3
 71 2
 72 1
 73 2
 74 2
 75 2
 76 1
 77 2
 78 3
 79 2
 80 3
 81 1
DEPOT_SECTION
 1
 -1
EOF
